NAME : problems/40-tsp/instance-37.tsp
COMMENT : No Comment
TYPE : TSP
DIMENSION: 40
EDGE_WEIGHT_TYPE : EUC_2D
NODE_COORD_SECTION
1 2776 1683 
2 9835 7121 
3 4484 3099 
4 1178 4297 
5 9850 2527 
6 7649 5619 
7 2068 6633 
8 4245 1073 
9 3576 5276 
10 1590 8293 
11 1499 3693 
12 584 190 
13 151 6592 
14 7821 4414 
15 5667 9112 
16 6600 6060 
17 5603 8109 
18 828 6807 
19 5699 7649 
20 6622 7190 
21 1025 9000 
22 1179 1105 
23 9102 9359 
24 4196 5013 
25 8670 6788 
26 3083 8403 
27 9556 3248 
28 1496 3209 
29 4585 7661 
30 412 657 
31 1004 897 
32 9419 6654 
33 2466 8188 
34 954 4224 
35 371 666 
36 3823 6844 
37 2823 2846 
38 7354 4043 
39 6180 153 
40 5640 3751 
EOF
